rust/resources/mps/pulp.mps
NAME        pulp
ROWS
 N  OBJ
 L  _C1
 G  _C10
 L  _C11
 G  _C12
 L  _C13
 G  _C14
 L  _C15
 G  _C16
 L  _C17
 G  _C18
 L  _C19
 G  _C2
 G  _C20
 L  _C21
 G  _C22
 L  _C23
 G  _C24
 L  _C25
 G  _C26
 L  _C27
 G  _C28
 L  _C29
 L  _C3
 G  _C30
 L  _C31
 G  _C32
 L  _C33
 G  _C34
 L  _C35
 G  _C36
 L  _C37
 G  _C38
 L  _C39
 G  _C4
 G  _C40
 L  _C41
 G  _C42
 L  _C43
 G  _C44
 L  _C45
 G  _C46
 L  _C47
 G  _C48
 E  _C49
 L  _C5
 G  _C6
 L  _C7
 G  _C8
 L  _C9
COLUMNS
    PenaltyTree_48  OBJ       1
    PenaltyTree_48  _C49      -1
    MARK0000  'MARKER'                 'INTORG'
    A_0       _C1       -1
    A_0       _C2       -1
    A_0       _C31      1
    A_0       _C32      1
    A_0       _C33      -1
    A_0       _C34      -1
    A_0       _C47      1
    A_0       _C48      1
    A_3       _C1       1
    A_3       _C2       1
    A_3       _C27      1
    A_3       _C28      1
    A_3       _C29      -1
    A_3       _C3       -1
    A_3       _C30      -1
    A_3       _C4       -1
    A_3       _C45      1
    A_3       _C46      1
    MARK0001  'MARKER'                 'INTEND'
    over_0    _C1       -1
    over_0    _C49      0.5
    MARK0002  'MARKER'                 'INTORG'
    B_3       _C10      -1
    B_3       _C25      1
    B_3       _C26      1
    B_3       _C27      -1
    B_3       _C28      -1
    B_3       _C45      1
    B_3       _C46      1
    B_3       _C7       1
    B_3       _C8       1
    B_3       _C9       -1
    B_7       _C10      1
    B_7       _C17      -1
    B_7       _C18      -1
    B_7       _C23      1
    B_7       _C24      1
    B_7       _C41      1
    B_7       _C42      1
    B_7       _C9       1
    MARK0003  'MARKER'                 'INTEND'
    under_9   _C10      1
    under_9   _C49      0.5
    MARK0004  'MARKER'                 'INTORG'
    D_0       _C11      -1
    D_0       _C12      -1
    D_0       _C33      1
    D_0       _C34      1
    D_0       _C35      -1
    D_0       _C36      -1
    D_0       _C47      1
    D_0       _C48      1
    D_3       _C11      1
    D_3       _C12      1
    D_3       _C39      1
    D_3       _C40      1
    MARK0005  'MARKER'                 'INTEND'
    over_10   _C11      -1
    over_10   _C49      0.5
    under_11  _C12      1
    under_11  _C49      0.5
    MARK0006  'MARKER'                 'INTORG'
    N_0       _C13      -1
    N_0       _C14      -1
    N_0       _C31      -1
    N_0       _C32      -1
    N_0       _C37      1
    N_0       _C38      1
    N_0       _C47      1
    N_0       _C48      1
    N_3       _C13      1
    N_3       _C14      1
    N_3       _C15      -1
    N_3       _C16      -1
    N_3       _C25      -1
    N_3       _C26      -1
    N_3       _C29      1
    N_3       _C30      1
    N_3       _C45      1
    N_3       _C46      1
    MARK0007  'MARKER'                 'INTEND'
    over_12   _C13      -1
    over_12   _C49      0.5
    under_13  _C14      1
    under_13  _C49      0.5
    MARK0008  'MARKER'                 'INTORG'
    N_7       _C15      1
    N_7       _C16      1
    N_7       _C19      1
    N_7       _C20      1
    N_7       _C21      -1
    N_7       _C22      -1
    N_7       _C41      1
    N_7       _C42      1
    MARK0009  'MARKER'                 'INTEND'
    over_14   _C15      -1
    over_14   _C49      0.5
    under_15  _C16      1
    under_15  _C49      0.5
    MARK0010  'MARKER'                 'INTORG'
    A_7       _C17      1
    A_7       _C18      1
    A_7       _C19      -1
    A_7       _C20      -1
    A_7       _C3       1
    A_7       _C4       1
    A_7       _C41      1
    A_7       _C42      1
    MARK0011  'MARKER'                 'INTEND'
    over_16   _C17      -1
    over_16   _C49      0.02
    under_17  _C18      1
    under_17  _C49      0.02
    over_18   _C19      -1
    over_18   _C49      0.02
    under_1   _C2       1
    under_1   _C49      0.5
    under_19  _C20      1
    under_19  _C49      0.02
    MARK0012  'MARKER'                 'INTORG'
    C_7       _C21      1
    C_7       _C22      1
    C_7       _C23      -1
    C_7       _C24      -1
    C_7       _C41      1
    C_7       _C42      1
    C_7       _C5       1
    C_7       _C6       1
    MARK0013  'MARKER'                 'INTEND'
    over_20   _C21      -1
    over_20   _C49      0.02
    under_21  _C22      1
    under_21  _C49      0.02
    over_22   _C23      -1
    over_22   _C49      0.02
    under_23  _C24      1
    under_23  _C49      0.02
    over_24   _C25      -1
    over_24   _C49      0.02
    under_25  _C26      1
    under_25  _C49      0.02
    over_26   _C27      -1
    over_26   _C49      0.02
    under_27  _C28      1
    under_27  _C49      0.02
    over_28   _C29      -1
    over_28   _C49      0.02
    over_2    _C3       -1
    over_2    _C49      0.5
    under_29  _C30      1
    under_29  _C49      0.02
    over_30   _C31      -1
    over_30   _C49      0.02
    under_31  _C32      1
    under_31  _C49      0.02
    over_32   _C33      -1
    over_32   _C49      0.02
    under_33  _C34      1
    under_33  _C49      0.02
    MARK0014  'MARKER'                 'INTORG'
    B_0       _C35      1
    B_0       _C36      1
    B_0       _C37      -1
    B_0       _C38      -1
    B_0       _C47      1
    B_0       _C48      1
    B_0       _C7       -1
    B_0       _C8       -1
    MARK0015  'MARKER'                 'INTEND'
    over_34   _C35      -1
    over_34   _C49      0.02
    under_35  _C36      1
    under_35  _C49      0.02
    over_36   _C37      -1
    over_36   _C49      0.02
    under_37  _C38      1
    under_37  _C49      0.02
    over_38   _C39      -1
    over_38   _C49      4
    under_3   _C4       1
    under_3   _C49      0.5
    under_39  _C40      1
    under_39  _C49      4
    over_40   _C41      -1
    over_40   _C49      4
    under_41  _C42      1
    under_41  _C49      4
    MARK0016  'MARKER'                 'INTORG'
    C_0       _C43      1
    C_0       _C44      1
    C_0       _C5       -1
    C_0       _C6       -1
    MARK0017  'MARKER'                 'INTEND'
    over_42   _C43      -1
    over_42   _C49      4
    under_43  _C44      1
    under_43  _C49      4
    over_44   _C45      -1
    over_44   _C49      4
    under_45  _C46      1
    under_45  _C49      4
    over_46   _C47      -1
    over_46   _C49      4
    under_47  _C48      1
    under_47  _C49      4
    over_4    _C49      0.5
    over_4    _C5       -1
    over_6    _C49      0.5
    over_6    _C7       -1
    over_8    _C49      0.5
    over_8    _C9       -1
    under_5   _C49      0.5
    under_5   _C6       1
    under_7   _C49      0.5
    under_7   _C8       1
RHS
    RHS_V     _C39      1.24660824696
    RHS_V     _C40      1.24660824696
    RHS_V     _C41      9.80665154278
    RHS_V     _C42      9.80665154278
    RHS_V     _C43      2.06580795211
    RHS_V     _C44      2.06580795211
    RHS_V     _C45      7.1056670077
    RHS_V     _C46      7.1056670077
    RHS_V     _C47      7.89518556411
    RHS_V     _C48      7.89518556411
BOUNDS
 FR BOUND     PenaltyTree_48
 UI BOUND     A_0       4
 UI BOUND     A_3       4
 UI BOUND     B_3       4
 UI BOUND     B_7       4
 UI BOUND     D_0       4
 UI BOUND     D_3       4
 UI BOUND     N_0       4
 UI BOUND     N_3       4
 UI BOUND     N_7       4
 UI BOUND     A_7       4
 UI BOUND     C_7       4
 UI BOUND     B_0       4
 UI BOUND     C_0       4
ENDATA
